10 2
1 2 56
1 3 76
1 4 47
1 5 9
1 6 84
1 7 63
1 8 84
1 9 6
1 10 86
2 3 18
2 4 25
2 5 67
2 6 91
2 7 82
2 8 96
2 9 98
2 10 35
3 4 3
3 5 10
3 6 78
3 7 84
3 8 53
3 9 80
3 10 72
4 5 35
4 6 8
4 7 20
4 8 45
4 9 56
4 10 37
5 6 52
5 7 70
5 8 36
5 9 59
5 10 41
6 7 15
6 8 93
6 9 71
6 10 83
7 8 26
7 9 6
7 10 75
8 9 87
8 10 51
9 10 32
